c colouring generated by benchmark framework
p edge 1262 6285
v 1 0
v 2 3
v 3 4
v 4 1
v 5 3
v 6 4
v 7 2
v 8 3
v 9 1
v 10 2
v 11 4
v 12 2
v 13 0
v 14 1
v 15 3
v 16 0
v 17 0
v 18 2
v 19 3
v 20 4
v 21 1
v 22 1
v 23 6
v 24 4
v 25 2
v 26 4
v 27 5
v 28 3
v 29 0
v 30 4
v 31 0
v 32 6
v 33 5
v 34 4
v 35 0
v 36 0
v 37 2
v 38 4
v 39 5
v 40 1
v 41 0
v 42 3
v 43 2
v 44 2
v 45 3
v 46 0
v 47 3
v 48 2
v 49 4
v 50 0
v 51 0
v 52 3
v 53 2
v 54 2
v 55 4
v 56 3
v 57 3
v 58 2
v 59 3
v 60 3
v 61 4
v 62 2
v 63 4
v 64 2
v 65 3
v 66 5
v 67 1
v 68 0
v 69 0
v 70 2
v 71 1
v 72 0
v 73 1
v 74 2
v 75 0
v 76 0
v 77 3
v 78 1
v 79 2
v 80 3
v 81 3
v 82 0
v 83 4
v 84 4
v 85 2
v 86 2
v 87 1
v 88 5
v 89 4
v 90 0
v 91 0
v 92 4
v 93 3
v 94 0
v 95 0
v 96 1
v 97 3
v 98 1
v 99 1
v 100 0
v 101 0
v 102 3
v 103 5
v 104 1
v 105 2
v 106 2
v 107 2
v 108 0
v 109 1
v 110 3
v 111 1
v 112 1
v 113 2
v 114 1
v 115 1
v 116 1
v 117 3
v 118 0
v 119 1
v 120 0
v 121 3
v 122 2
v 123 0
v 124 0
v 125 1
v 126 1
v 127 2
v 128 2
v 129 2
v 130 0
v 131 0
v 132 2
v 133 1
v 134 0
v 135 0
v 136 3
v 137 2
v 138 2
v 139 0
v 140 3
v 141 5
v 142 1
v 143 1
v 144 4
v 145 0
v 146 2
v 147 1
v 148 2
v 149 1
v 150 4
v 151 0
v 152 2
v 153 0
v 154 3
v 155 4
v 156 4
v 157 1
v 158 2
v 159 0
v 160 0
v 161 2
v 162 4
v 163 2
v 164 1
v 165 3
v 166 0
v 167 1
v 168 3
v 169 1
v 170 2
v 171 2
v 172 2
v 173 1
v 174 5
v 175 5
v 176 3
v 177 0
v 178 2
v 179 1
v 180 0
v 181 1
v 182 1
v 183 1
v 184 0
v 185 3
v 186 0
v 187 2
v 188 3
v 189 2
v 190 1
v 191 3
v 192 3
v 193 0
v 194 2
v 195 1
v 196 1
v 197 2
v 198 0
v 199 2
v 200 4
v 201 1
v 202 1
v 203 2
v 204 0
v 205 0
v 206 3
v 207 4
v 208 2
v 209 0
v 210 1
v 211 1
v 212 0
v 213 3
v 214 2
v 215 1
v 216 1
v 217 5
v 218 3
v 219 0
v 220 2
v 221 2
v 222 4
v 223 2
v 224 0
v 225 2
v 226 0
v 227 1
v 228 3
v 229 1
v 230 4
v 231 3
v 232 0
v 233 0
v 234 3
v 235 2
v 236 1
v 237 2
v 238 0
v 239 4
v 240 3
v 241 3
v 242 2
v 243 1
v 244 1
v 245 1
v 246 2
v 247 0
v 248 2
v 249 2
v 250 0
v 251 1
v 252 1
v 253 1
v 254 3
v 255 5
v 256 4
v 257 0
v 258 1
v 259 1
v 260 1
v 261 1
v 262 1
v 263 4
v 264 1
v 265 1
v 266 1
v 267 4
v 268 4
v 269 2
v 270 0
v 271 1
v 272 3
v 273 4
v 274 3
v 275 0
v 276 5
v 277 1
v 278 1
v 279 0
v 280 3
v 281 2
v 282 0
v 283 4
v 284 3
v 285 0
v 286 1
v 287 1
v 288 1
v 289 2
v 290 0
v 291 1
v 292 3
v 293 4
v 294 2
v 295 1
v 296 2
v 297 1
v 298 3
v 299 2
v 300 1
v 301 2
v 302 0
v 303 0
v 304 2
v 305 1
v 306 3
v 307 1
v 308 0
v 309 4
v 310 4
v 311 4
v 312 3
v 313 0
v 314 3
v 315 0
v 316 1
v 317 0
v 318 2
v 319 0
v 320 2
v 321 4
v 322 4
v 323 0
v 324 2
v 325 1
v 326 3
v 327 2
v 328 3
v 329 1
v 330 0
v 331 4
v 332 3
v 333 0
v 334 0
v 335 4
v 336 1
v 337 4
v 338 0
v 339 3
v 340 4
v 341 2
v 342 2
v 343 0
v 344 4
v 345 6
v 346 0
v 347 1
v 348 5
v 349 5
v 350 0
v 351 3
v 352 2
v 353 1
v 354 0
v 355 0
v 356 3
v 357 1
v 358 3
v 359 3
v 360 3
v 361 0
v 362 1
v 363 2
v 364 3
v 365 0
v 366 2
v 367 1
v 368 2
v 369 3
v 370 2
v 371 2
v 372 4
v 373 0
v 374 3
v 375 0
v 376 2
v 377 2
v 378 4
v 379 4
v 380 0
v 381 1
v 382 2
v 383 3
v 384 1
v 385 2
v 386 1
v 387 2
v 388 4
v 389 4
v 390 1
v 391 1
v 392 2
v 393 1
v 394 0
v 395 2
v 396 0
v 397 3
v 398 1
v 399 0
v 400 0
v 401 2
v 402 5
v 403 0
v 404 3
v 405 4
v 406 2
v 407 0
v 408 0
v 409 0
v 410 3
v 411 2
v 412 1
v 413 1
v 414 0
v 415 3
v 416 2
v 417 3
v 418 2
v 419 2
v 420 4
v 421 2
v 422 5
v 423 0
v 424 1
v 425 0
v 426 0
v 427 3
v 428 3
v 429 2
v 430 1
v 431 2
v 432 1
v 433 0
v 434 0
v 435 0
v 436 2
v 437 4
v 438 3
v 439 2
v 440 4
v 441 0
v 442 2
v 443 1
v 444 2
v 445 4
v 446 0
v 447 3
v 448 3
v 449 1
v 450 2
v 451 0
v 452 0
v 453 1
v 454 4
v 455 3
v 456 0
v 457 2
v 458 3
v 459 2
v 460 4
v 461 0
v 462 3
v 463 1
v 464 2
v 465 3
v 466 1
v 467 3
v 468 1
v 469 5
v 470 3
v 471 1
v 472 0
v 473 4
v 474 0
v 475 4
v 476 2
v 477 0
v 478 3
v 479 0
v 480 3
v 481 2
v 482 0
v 483 0
v 484 1
v 485 4
v 486 3
v 487 3
v 488 4
v 489 0
v 490 3
v 491 0
v 492 0
v 493 3
v 494 4
v 495 1
v 496 2
v 497 0
v 498 0
v 499 1
v 500 1
v 501 1
v 502 2
v 503 3
v 504 1
v 505 3
v 506 3
v 507 0
v 508 3
v 509 3
v 510 0
v 511 1
v 512 1
v 513 2
v 514 2
v 515 2
v 516 2
v 517 0
v 518 3
v 519 1
v 520 2
v 521 2
v 522 2
v 523 2
v 524 0
v 525 1
v 526 0
v 527 4
v 528 2
v 529 3
v 530 1
v 531 3
v 532 1
v 533 2
v 534 0
v 535 1
v 536 4
v 537 1
v 538 3
v 539 1
v 540 2
v 541 4
v 542 2
v 543 5
v 544 4
v 545 2
v 546 0
v 547 0
v 548 2
v 549 0
v 550 0
v 551 2
v 552 1
v 553 3
v 554 3
v 555 0
v 556 1
v 557 4
v 558 2
v 559 1
v 560 2
v 561 1
v 562 2
v 563 3
v 564 0
v 565 2
v 566 3
v 567 2
v 568 0
v 569 2
v 570 4
v 571 4
v 572 1
v 573 0
v 574 4
v 575 0
v 576 3
v 577 2
v 578 3
v 579 1
v 580 0
v 581 2
v 582 4
v 583 3
v 584 3
v 585 2
v 586 2
v 587 3
v 588 0
v 589 3
v 590 0
v 591 1
v 592 1
v 593 1
v 594 1
v 595 0
v 596 2
v 597 3
v 598 3
v 599 1
v 600 1
v 601 4
v 602 1
v 603 3
v 604 2
v 605 2
v 606 3
v 607 1
v 608 3
v 609 3
v 610 2
v 611 2
v 612 0
v 613 1
v 614 0
v 615 4
v 616 2
v 617 4
v 618 0
v 619 0
v 620 0
v 621 0
v 622 0
v 623 2
v 624 1
v 625 4
v 626 1
v 627 0
v 628 0
v 629 3
v 630 3
v 631 1
v 632 1
v 633 2
v 634 1
v 635 0
v 636 1
v 637 2
v 638 2
v 639 2
v 640 4
v 641 3
v 642 1
v 643 3
v 644 3
v 645 2
v 646 1
v 647 0
v 648 1
v 649 3
v 650 0
v 651 3
v 652 2
v 653 0
v 654 0
v 655 2
v 656 1
v 657 1
v 658 0
v 659 1
v 660 4
v 661 0
v 662 1
v 663 1
v 664 2
v 665 3
v 666 4
v 667 1
v 668 0
v 669 3
v 670 4
v 671 2
v 672 1
v 673 3
v 674 1
v 675 0
v 676 1
v 677 3
v 678 0
v 679 4
v 680 0
v 681 1
v 682 3
v 683 3
v 684 1
v 685 2
v 686 2
v 687 3
v 688 5
v 689 1
v 690 1
v 691 1
v 692 0
v 693 5
v 694 4
v 695 1
v 696 2
v 697 3
v 698 4
v 699 4
v 700 0
v 701 2
v 702 2
v 703 1
v 704 0
v 705 4
v 706 3
v 707 1
v 708 1
v 709 1
v 710 1
v 711 0
v 712 0
v 713 4
v 714 0
v 715 0
v 716 0
v 717 0
v 718 2
v 719 0
v 720 3
v 721 1
v 722 4
v 723 0
v 724 1
v 725 4
v 726 4
v 727 2
v 728 1
v 729 2
v 730 0
v 731 3
v 732 3
v 733 0
v 734 1
v 735 2
v 736 3
v 737 1
v 738 0
v 739 0
v 740 2
v 741 2
v 742 1
v 743 4
v 744 1
v 745 4
v 746 1
v 747 4
v 748 0
v 749 1
v 750 1
v 751 2
v 752 1
v 753 4
v 754 2
v 755 1
v 756 3
v 757 4
v 758 5
v 759 0
v 760 3
v 761 0
v 762 2
v 763 2
v 764 1
v 765 2
v 766 3
v 767 1
v 768 0
v 769 1
v 770 1
v 771 4
v 772 4
v 773 2
v 774 1
v 775 3
v 776 3
v 777 3
v 778 1
v 779 3
v 780 1
v 781 1
v 782 3
v 783 2
v 784 3
v 785 3
v 786 1
v 787 2
v 788 0
v 789 0
v 790 4
v 791 2
v 792 0
v 793 3
v 794 1
v 795 0
v 796 3
v 797 0
v 798 1
v 799 2
v 800 2
v 801 5
v 802 4
v 803 3
v 804 1
v 805 3
v 806 3
v 807 2
v 808 2
v 809 2
v 810 3
v 811 2
v 812 5
v 813 3
v 814 0
v 815 1
v 816 1
v 817 4
v 818 2
v 819 0
v 820 1
v 821 2
v 822 0
v 823 2
v 824 1
v 825 1
v 826 2
v 827 2
v 828 1
v 829 2
v 830 4
v 831 2
v 832 1
v 833 0
v 834 3
v 835 2
v 836 3
v 837 2
v 838 4
v 839 1
v 840 1
v 841 3
v 842 1
v 843 0
v 844 3
v 845 0
v 846 1
v 847 2
v 848 1
v 849 3
v 850 1
v 851 3
v 852 3
v 853 4
v 854 3
v 855 1
v 856 4
v 857 4
v 858 2
v 859 3
v 860 3
v 861 3
v 862 4
v 863 4
v 864 2
v 865 4
v 866 1
v 867 1
v 868 1
v 869 1
v 870 2
v 871 1
v 872 2
v 873 0
v 874 1
v 875 2
v 876 3
v 877 1
v 878 5
v 879 2
v 880 4
v 881 2
v 882 3
v 883 2
v 884 2
v 885 2
v 886 3
v 887 2
v 888 1
v 889 3
v 890 3
v 891 4
v 892 1
v 893 2
v 894 3
v 895 5
v 896 5
v 897 3
v 898 5
v 899 2
v 900 2
v 901 3
v 902 2
v 903 0
v 904 2
v 905 1
v 906 5
v 907 2
v 908 1
v 909 4
v 910 2
v 911 3
v 912 1
v 913 2
v 914 3
v 915 1
v 916 2
v 917 1
v 918 1
v 919 3
v 920 2
v 921 0
v 922 2
v 923 1
v 924 4
v 925 2
v 926 0
v 927 0
v 928 1
v 929 1
v 930 3
v 931 1
v 932 3
v 933 0
v 934 0
v 935 0
v 936 2
v 937 0
v 938 3
v 939 3
v 940 1
v 941 2
v 942 1
v 943 1
v 944 1
v 945 1
v 946 0
v 947 2
v 948 1
v 949 0
v 950 1
v 951 2
v 952 2
v 953 1
v 954 1
v 955 0
v 956 2
v 957 5
v 958 2
v 959 2
v 960 4
v 961 3
v 962 3
v 963 2
v 964 4
v 965 3
v 966 0
v 967 4
v 968 0
v 969 2
v 970 0
v 971 0
v 972 0
v 973 2
v 974 4
v 975 2
v 976 3
v 977 2
v 978 1
v 979 0
v 980 0
v 981 3
v 982 2
v 983 0
v 984 1
v 985 1
v 986 0
v 987 1
v 988 0
v 989 3
v 990 5
v 991 1
v 992 1
v 993 4
v 994 2
v 995 4
v 996 2
v 997 0
v 998 2
v 999 2
v 1000 2
v 1001 1
v 1002 3
v 1003 3
v 1004 5
v 1005 0
v 1006 3
v 1007 2
v 1008 1
v 1009 0
v 1010 2
v 1011 0
v 1012 3
v 1013 1
v 1014 0
v 1015 1
v 1016 3
v 1017 2
v 1018 1
v 1019 1
v 1020 3
v 1021 2
v 1022 0
v 1023 1
v 1024 0
v 1025 0
v 1026 5
v 1027 2
v 1028 0
v 1029 1
v 1030 3
v 1031 4
v 1032 1
v 1033 0
v 1034 3
v 1035 1
v 1036 2
v 1037 3
v 1038 1
v 1039 0
v 1040 0
v 1041 4
v 1042 0
v 1043 4
v 1044 0
v 1045 2
v 1046 1
v 1047 1
v 1048 1
v 1049 3
v 1050 1
v 1051 3
v 1052 4
v 1053 3
v 1054 3
v 1055 1
v 1056 2
v 1057 1
v 1058 3
v 1059 3
v 1060 1
v 1061 3
v 1062 0
v 1063 2
v 1064 1
v 1065 3
v 1066 1
v 1067 2
v 1068 1
v 1069 0
v 1070 0
v 1071 0
v 1072 0
v 1073 2
v 1074 2
v 1075 3
v 1076 0
v 1077 3
v 1078 3
v 1079 4
v 1080 3
v 1081 2
v 1082 1
v 1083 4
v 1084 2
v 1085 3
v 1086 4
v 1087 4
v 1088 5
v 1089 1
v 1090 3
v 1091 2
v 1092 3
v 1093 1
v 1094 0
v 1095 1
v 1096 0
v 1097 0
v 1098 4
v 1099 3
v 1100 0
v 1101 4
v 1102 4
v 1103 0
v 1104 2
v 1105 1
v 1106 0
v 1107 0
v 1108 1
v 1109 2
v 1110 3
v 1111 0
v 1112 0
v 1113 2
v 1114 4
v 1115 1
v 1116 4
v 1117 2
v 1118 2
v 1119 1
v 1120 2
v 1121 1
v 1122 1
v 1123 0
v 1124 2
v 1125 2
v 1126 0
v 1127 3
v 1128 4
v 1129 0
v 1130 3
v 1131 1
v 1132 0
v 1133 1
v 1134 0
v 1135 2
v 1136 2
v 1137 3
v 1138 2
v 1139 2
v 1140 0
v 1141 2
v 1142 0
v 1143 3
v 1144 2
v 1145 2
v 1146 3
v 1147 0
v 1148 2
v 1149 0
v 1150 2
v 1151 0
v 1152 2
v 1153 0
v 1154 2
v 1155 1
v 1156 0
v 1157 3
v 1158 2
v 1159 4
v 1160 0
v 1161 0
v 1162 2
v 1163 2
v 1164 1
v 1165 2
v 1166 0
v 1167 2
v 1168 2
v 1169 2
v 1170 0
v 1171 0
v 1172 2
v 1173 4
v 1174 0
v 1175 2
v 1176 1
v 1177 3
v 1178 0
v 1179 4
v 1180 0
v 1181 3
v 1182 3
v 1183 3
v 1184 0
v 1185 1
v 1186 3
v 1187 3
v 1188 0
v 1189 0
v 1190 1
v 1191 0
v 1192 1
v 1193 2
v 1194 0
v 1195 1
v 1196 1
v 1197 3
v 1198 1
v 1199 0
v 1200 2
v 1201 2
v 1202 3
v 1203 3
v 1204 0
v 1205 1
v 1206 1
v 1207 5
v 1208 1
v 1209 1
v 1210 0
v 1211 4
v 1212 4
v 1213 2
v 1214 1
v 1215 1
v 1216 3
v 1217 4
v 1218 2
v 1219 1
v 1220 0
v 1221 0
v 1222 4
v 1223 1
v 1224 3
v 1225 1
v 1226 0
v 1227 1
v 1228 2
v 1229 4
v 1230 2
v 1231 1
v 1232 1
v 1233 0
v 1234 0
v 1235 2
v 1236 2
v 1237 3
v 1238 0
v 1239 3
v 1240 3
v 1241 4
v 1242 1
v 1243 1
v 1244 0
v 1245 3
v 1246 4
v 1247 0
v 1248 1
v 1249 2
v 1250 2
v 1251 1
v 1252 3
v 1253 1
v 1254 4
v 1255 3
v 1256 1
v 1257 0
v 1258 4
v 1259 1
v 1260 1
v 1261 0
v 1262 3
